(set-logic ALL)
(set-option :produce-models true)
(declare-sort BoundSet 0)
(declare-sort UnboundSet 0)
(set-option :finite-model-find true)
(declare-fun IsInBlack (BoundSet) Bool)
(declare-fun HasJob (BoundSet) Bool)
(declare-fun IsWalksToWork (BoundSet) Bool)
(declare-fun IsReviewsMessages (BoundSet) Bool)
(assert (not (=> (and (exists ((a BoundSet)) (exists ((b BoundSet)) (and (IsInBlack a) (HasJob b)))) (forall ((f BoundSet)) (forall ((e BoundSet)) (=> (IsWalksToWork e) (HasJob f))))) (exists ((a BoundSet)) (exists ((d BoundSet)) (and (IsReviewsMessages a) (IsWalksToWork d)))))))
(check-sat)
(get-model)